! wb97x-v def2-tzvp def2/J RIJCOSX DEFGRID2 scfconv7 GCP(DFT/TZ) printgap
%output
    printlevel normal
end
* xyz 0 1
C -1.4276578628330747 -0.9992847290198358 0.00045540009880082756
S -0.0018201404526207142 0.1251410270530429 -0.0006620365225341324
O -0.011463216800324342 0.8544408508162805 1.2790430919449336
O -0.011567989805694118 0.8516853199855691 -1.2820119338239127
C 1.4417574903588968 -1.0036911238151622 0.0001796567120474921
H -1.4048328224825533 -1.6104233347149883 -0.9041544794298076
H -1.403513282175724 -1.6103066398223373 0.9051005491018703
H -2.30936293423679 -0.35447356082572123 0.0010483443807022769
H 2.0121667965270276 -0.8035401238025044 0.9080323040142747
H 1.0997621288326571 -2.0404871958155937 -0.014619406305988823
H 2.02706151850405 -0.7836179684856331 -0.8935287316490729
*
