! wb97x-v def2-tzvp def2/J RIJCOSX DEFGRID2 scfconv7 GCP(DFT/TZ) printgap
%output
    printlevel normal
end
* xyz 0 1
C 1.2618293896569002 -0.28797445862829846 0.0036611882832248005
C -3.6598734477062953e-06 0.5762548214709337 -0.0501054783368835
O -1.1386245861301016 -0.294667992572232 0.04611756740023694
H 1.8646194265192553 -0.18729586898068135 -0.9019118583315502
H 1.8914837183911692 -0.03950121909538359 0.8612341995906273
H 0.9676625031946239 -1.3363698584681165 0.09611785706831699
H -0.039773933461263004 1.1456582273205307 -0.9904190279765425
H -0.008868410985353653 1.3008879019629456 0.7774375961227489
H -1.9321117252890625 0.24975722476646403 0.011658837033902072
*
