! r2scan-3c def2/J RI DEFGRID2 scfconv6 printgap
%output
    printlevel normal
end
* xyz 0 1
C 4.76493e-05 -2.1147659283 -8.76181e-05
C 1.2035164477 -1.4312254505 -2.92694e-05
C 1.1918481386 -0.0449580462 0.0001968565
C 1.21551e-05 0.662240101 0.0002370885
C -1.1918616022 -0.0449779665 0.0002541714
C -1.2035223474 -1.4312289219 5.7565e-05
Cl -2.6831342413 0.8226403645 -0.0001086849
Cl 2.683125822 0.8226433854 -8.35737e-05
H -0.0001566134 -3.1938259841 -0.0004953408
H 2.1412281388 -1.9632631704 -0.0002123486
H -0.0001129116 1.7402863206 4.44612e-05
H -2.1411443974 -1.9634890172 -6.73002e-05
*
