! r2scan-3c def2/J RI DEFGRID2 scfconv6 printgap
%output
    printlevel normal
end
* xyz 0 1
C 4.2192914018 1.2280672479 8.56922e-05
C 2.9225626788 1.7152190312 -0.0001583452
C 1.8471923909 0.8435750818 -0.000357461
C 2.0704415141 -0.5344097 -0.0003417235
C 3.3629661517 -1.0274691451 -6.92457e-05
C 4.4308419781 -0.1398130271 0.000146363
Cl 6.0368002443 -0.762111303 0.0005137492
O 1.0357119298 -1.4409158754 -0.000601687
C -0.2254035627 -0.9119144581 -0.0004139836
C -1.2968454152 -1.7872397677 -0.0002732881
C -2.5958152634 -1.2976037005 -3.75793e-05
C -2.8328974082 0.0725831354 8.8038e-05
C -1.7484296842 0.9525813562 -7.3434e-05
C -0.444211473 0.4692162454 -0.0003505801
O 0.5782314351 1.374993307 -0.0005579874
Cl -1.9997437321 2.6484896921 5.11796e-05
Cl -4.4322073042 0.6885567188 0.0004473821
Cl -3.9124482509 -2.3964966497 0.0001161461
H 5.0551809042 1.9079027097 0.0002382769
H 2.726383959 2.7747485803 -0.0002045887
H 3.5180975015 -2.0934680766 -4.15236e-05
H -1.1081184972 -2.847517796 -0.000356498
*
