! r2scan-3c def2/J RI DEFGRID2 scfconv6 printgap
%output
    printlevel normal
end
* xyz 0 1
C 0.858093444 1.3997891002 -0.5913670115
C 1.5890078005 0.1657803821 -0.0271264911
H 2.5671507124 0.0904714806 -0.5165729673
C 0.7780684582 -1.1140456921 -0.327598534
H 1.1988312985 -1.9364611992 0.2609269517
C -0.6844241865 -0.9140802009 0.116702164
H -1.2934905579 -1.7545597189 -0.2505060642
C -1.2599073707 0.3881768999 -0.4708530619
H -1.3289702255 0.3006858109 -1.5791672501
O -0.4738525825 1.5012040807 -0.1361492443
O -2.5181416362 0.5782929255 0.0855801616
O -0.7210291667 -0.8480776958 1.5202313406
O 0.8715072239 -1.5207368386 -1.6665528803
O 1.8400668838 0.298180956 1.3413569583
H 0.8760244983 1.378867112 -1.6929424031
H 1.3513062221 2.3069466152 -0.2405611909
H -2.7339241274 1.5164693626 0.0210261634
H -1.5866136373 -0.488988684 1.7624147803
H 0.5782694261 -0.8104279877 -2.2482616476
H 1.0048528507 0.142669177 1.8111991328
*
