! r2scan-3c def2/J RI DEFGRID2 scfconv6 printgap
%output
    printlevel normal
end
* xyz 0 1
S -2.9e-08 -0.0543383376 -0.0
H -0.957504587 0.8642166864 2e-10
H 0.9575055098 0.8642158012 4e-10
*
