! pbe def2-sv(p) def2/J RI DEFGRID1 loosescf d4 GCP(DFT/SV(P)) printgap
%output
    printlevel normal
end
* xyz 0 1
C -1.4793128544 -0.596136631 1.3734114865
C -1.0068829699 -0.1340500151 -0.011528818
C -1.8179881478 1.0882022534 -0.4533940457
C -1.152348915 -1.266172537 -1.0248791175
C 0.4425895661 0.3113680195 0.1559054387
O 0.7737347958 1.2794562043 0.7911847157
O 1.3056110127 -0.4983095425 -0.4642553549
C 2.6899616357 -0.1941151164 -0.3588177888
H -2.5324690997 -0.8646791698 1.3358181635
H -0.91130889 -1.4641430125 1.7018931777
H -1.3454689033 0.2019016859 2.0996172996
H -2.8786553224 0.849280673 -0.4645164094
H -1.5214423489 1.4023803364 -1.451927348
H -1.648470356 1.914185692 0.2325785006
H -0.7857096434 -0.9594765797 -2.0012062269
H -0.5927944767 -2.1426903727 -0.7097683696
H -2.2016376873 -1.5378975042 -1.1179608247
H 3.1624647141 -0.9127561075 0.3127325333
H 2.8198714078 0.8165626862 0.0329832478
H 3.1226517525 -0.2774968206 -1.3548326376
*
