! wb97x-v def2-tzvp def2/J RIJCOSX DEFGRID2 scfconv7 GCP(DFT/TZ) printgap
%output
    printlevel normal
end
* xyz 0 1
C -2.4775209434248264 0.10281804364490489 0.4080540642967093
C -1.2358957789244154 0.6707907733570562 -0.2642485307376748
C 0.0338036880614876 0.004141081245492172 0.20773626743991935
O 0.09893762465810413 -0.9332585587458436 0.968008576003027
O 1.1209124938541581 0.5993962692559376 -0.34215539484866975
C 2.38693325165852 0.02566599031970275 0.048857054233037
H -2.5822466035855776 -0.9641100618054234 0.19753188667712596
H -2.418967398776211 0.2178857734908998 1.4932332312912517
H -3.372777544910825 0.6187620030382621 0.05121728769830141
H -1.1348273940514708 1.7479440709443237 -0.08768098561913419
H -1.2807907994979049 0.5554913313456099 -1.3543740433875566
H 2.509718756614189 0.07787425559760781 1.1337316689242447
H 3.145895369608255 0.6242480911463515 -0.4548233250665406
H 2.446072115890888 -1.0192043083813003 -0.2670673084110213
*
