! pbe def2-sv(p) def2/J RI DEFGRID1 loosescf d4 GCP(DFT/SV(P)) printgap
%output
    printlevel normal
end
* xyz 0 1
C 0.7867631937 1.4295193799 -0.4931512798
C 1.5961161787 0.1843983316 -0.0687075334
H 2.505150451 0.1609453377 -0.6841339995
C 0.7761813243 -1.1012484003 -0.318736454
H 1.2516363306 -1.9258236787 0.236083288
C -0.6584264422 -0.9112960278 0.2128601746
H -1.2453769587 -1.8125005985 0.0181432041
C -1.2747131845 0.3103773041 -0.491205861
H -1.1885870605 0.2197764154 -1.5807622969
O -0.5413425297 1.4321749292 -0.0167222145
O -2.6069550218 0.4823741986 -0.1983842154
O -0.6700443797 -0.6598830921 1.6002974409
O 0.6722170542 -1.4079640134 -1.6870233912
O 2.0460042517 0.2491174965 1.2597754463
H 0.7834905484 1.4891120791 -1.5894399564
H 1.2525672642 2.3242776432 -0.0769213578
H -2.7285981696 0.4517052783 0.761049728
H -0.6533270614 0.3100305939 1.6978924496
H 1.5434622528 -1.645075445 -2.0245267708
H 1.3337663115 -0.0418306134 1.8471652731
*
