! pbe def2-sv(p) def2/J RI DEFGRID1 loosescf d4 GCP(DFT/SV(P)) printgap
%output
    printlevel normal
end
* xyz 0 1
C -0.7305020468 -1.1916738234 0.2453088222
C 0.7200701726 -1.1589187404 -0.2391940955
O 1.3830495351 0.0003605317 0.2112896393
C 0.719629172 1.1593630464 -0.2391440656
C -0.731084774 1.1912288432 0.2451933073
N -1.3961944593 -0.0003939274 -0.2547932333
H -0.7344971688 -1.2418102271 1.3484845402
H -1.23423864 -2.0745986811 -0.1522998141
H 1.2826376652 -2.00644154 0.1558670186
H 0.7295367246 -1.189570072 -1.3389011127
H 1.2817600383 2.0071188229 0.1560320525
H 0.7291651441 1.1901351667 -1.3388417595
H -0.7355191399 1.2416729533 1.3483283475
H -1.2349945859 2.0739035523 -0.1526956085
H -2.3747472709 -0.0006506441 0.0158990416
*
