! pbe def2-sv(p) def2/J RI DEFGRID1 loosescf d4 GCP(DFT/SV(P)) printgap
%output
    printlevel normal
end
* xyz 0 1
C 1.9379280523 -0.1336695738 2.89172e-05
C 0.5606774207 0.5180947989 -3.46759e-05
C -0.5606787477 -0.5180966341 -3.49591e-05
C -1.9379276314 0.1336708019 2.91038e-05
H 2.7203077388 0.6218585905 0.0003070764
H 2.064099348 -0.7586993625 0.8816464595
H 2.0643749526 -0.758380759 -0.8817788396
H 0.4608680083 1.1557067494 0.8815779102
H 0.4609137291 1.1556570793 -0.8816887265
H -0.4609211878 -1.1556678762 -0.8816809668
H -0.4608591114 -1.1556993577 0.8815836008
H -2.0642754876 0.7585684051 -0.8816612268
H -2.0641872624 0.7585199712 0.8817601834
H -2.7203099296 -0.6218562058 7.29319e-05
*
