! wb97x-v def2-tzvp def2/J RIJCOSX DEFGRID2 scfconv7 GCP(DFT/TZ) printgap
%output
    printlevel normal
end
* xyz 0 1
C 1.6434724199090236 1.1966293012160107 4.748524882051885e-05
C 0.25427156612270857 1.2333741674828709 -2.9275505696147822e-05
C -0.41993625427838194 0.020708521121386866 -6.158242520556032e-05
C 0.29580420142371294 -1.1743622592949197 -5.12953454440471e-06
N 1.6285983708895868 -1.2039395715166463 7.258648231196352e-05
C 2.283388591415447 -0.03870374406151068 9.441473559919921e-05
Cl -2.1689696965317418 -0.01836546545984899 -0.00017762660412427625
H 2.218656552812491 2.116656686778612 7.064857089153862e-05
H -0.2910926572272052 2.1702959144948357 -6.501107108853464e-05
H -0.22873699244397003 -2.1273768329376868 -1.781369289787661e-05
H 3.3699247624551276 -0.09709350081447801 0.00014633745528231114
*
