! pbe def2-sv(p) def2/J RI DEFGRID1 loosescf d4 GCP(DFT/SV(P)) printgap
%output
    printlevel normal
end
* xyz 0 1
C 0.731998883 1.5845062691 -0.7147894712
C 1.519110095 0.2991955607 -0.4019487643
H 1.9231842105 -0.1229297389 -1.3361976986
C 0.5685631356 -0.7414708404 0.2061010241
H 0.3962674001 -0.4929008206 1.2670845448
C -0.773896801 -0.672548802 -0.5408530442
H -0.5907562152 -0.7695942794 -1.616858713
C -1.4207764716 0.6897653643 -0.2116246819
H -2.0999889307 0.9990105683 -1.0327715692
O -0.467217502 1.6937673992 0.0191567449
O -2.1531768819 0.5325730107 0.9666782573
O -1.6032031302 -1.7407630196 -0.178852728
O 1.1418548824 -2.0194740296 0.1005471204
O 2.572287343 0.6163553704 0.4704302893
H 0.5180046442 1.6507093515 -1.7890137763
H 1.3320743544 2.4419581796 -0.4081786557
H -2.1464970156 1.3823036273 1.4221607376
H -2.079888826 -1.4755905459 0.6216453563
H 0.411451876 -2.6533361458 0.0583790102
H 2.9752177219 -0.2115547592 0.7591276342
*
