! r2scan-3c def2/J RI DEFGRID2 scfconv6 printgap
%output
    printlevel normal
end
* xyz 0 1
C 0.5770460938 1.7066406275 -0.0049936434
C 1.3923679825 0.4327063733 -0.2637584562
H 1.5914774992 0.3382612649 -1.3436510649
C 0.5610205087 -0.7714393642 0.1892101871
H 0.3942196067 -0.6839507153 1.2751333166
C -0.7917123559 -0.7553309933 -0.529402084
H -0.6215510728 -0.9013195389 -1.6060491629
C -1.4773609348 0.6085272403 -0.3004878091
H -2.3659963892 0.684780092 -0.9469537829
O -0.6570895253 1.6616703494 -0.6936336659
O -1.8378033321 0.7371740847 1.0442632238
O -1.6458000285 -1.7487876229 -0.0191635253
O 1.1942324514 -1.9952295138 -0.1012680602
O 2.6012617167 0.4016614461 0.4636356784
H 1.0914830195 2.5899078163 -0.3902532436
H 0.4098508323 1.819865138 1.0731379699
H -2.2094018625 -0.1147705654 1.3112492797
H -1.1452410186 -2.5744654949 -0.0125573029
H 2.1057957598 -1.9226384438 0.2059991156
H 3.1144413714 1.1899036688 0.2576012928
*
