! r2scan-3c def2/J RI DEFGRID2 scfconv6 printgap
%output
    printlevel normal
end
* xyz 0 1
C 2.0168302304 0.7731625864 -6.4635e-05
C 0.784872883 -0.1000978858 -9.49316e-05
O 0.8388686169 -1.307264997 0.000314169
C -0.4979181729 0.6450914059 -0.0005348247
C -1.6654814029 0.0308712162 -0.7412996085
C -1.6652372961 0.0320549251 0.7416211283
H 2.0123370594 1.4104993924 -0.8821056935
H 2.0113901856 1.412046364 0.8807503316
H 2.9125116845 0.1581219715 0.0008804059
H -0.4119730257 1.7234578427 -0.0012795549
H -2.3286877017 0.69783864 -1.2704742861
H -1.4730710759 -0.9052514668 -1.2430402948
H -2.3282498683 0.6998766969 1.2699383172
H -1.4726312784 -0.903230263 1.2447871121
*
