! r2scan-3c def2/J RI DEFGRID2 scfconv6 printgap
%output
    printlevel normal
end
* xyz 0 1
C -2.6195086916 0.5272969978 0.0107078601
C -1.2296123556 -0.0462225444 -0.0006059129
C -1.1356499384 -1.4361688137 -0.0023978516
C 0.0865429291 -2.0758608499 -0.0051951771
C 1.248066812 -1.329625218 -0.0013827638
C 1.1723937243 0.055433555 0.0011862084
C -0.0640026471 0.7185595694 -0.0040892184
C -0.0441856001 2.2264632616 -0.0126234398
O 2.3549728986 0.7349827201 0.0099450411
H -2.6425136171 1.6111431128 -0.0017592597
H -3.171867171 0.1660782588 -0.8559858
H -3.1453909326 0.1890958332 0.9029822395
H -2.0461833966 -2.0175384279 -0.0013296014
H 0.1376134245 -3.1541452561 -0.007939454
H 2.2217712793 -1.792428193 0.0006289933
H 0.4141283973 2.6110910315 0.9013466529
H 0.519678814 2.5977975022 -0.8713789361
H -1.0411698354 2.6460678691 -0.0778466716
H 2.1875686426 1.6841294091 0.0250205543
*
