! wb97x-v def2-tzvp def2/J RIJCOSX DEFGRID2 scfconv7 GCP(DFT/TZ) printgap
%output
    printlevel normal
end
* xyz 0 1
C 3.575149118895769 0.6953170929841193 -0.0002917922769556934
C 3.575156303527016 -0.6952958225258881 -0.00021586711672368395
C 2.3695947298549376 -1.3924449902449858 -4.7776546788295344e-05
C 1.1701725054562773 -0.6974750141618518 7.067666218968224e-05
C 1.1701639642854893 0.6974776305919913 5.80784339706422e-05
C 2.369581850733274 1.3924569670021807 -0.0001580230252082971
O -1.3411894257354176e-05 1.4281191080298883 0.00027992542311486654
C -1.1701825628002933 0.6974611535193136 0.00016924828309843753
C -2.369609415806778 1.3924263012540496 0.00015526430466685518
C -3.5751655773460818 0.6952700070551207 7.770937990520847e-06
C -3.5751547651434485 -0.6953448740398038 -0.00015811874330604853
C -2.3695862832845664 -1.3924773142967448 -0.00012513562654625912
C -1.1701724070834827 -0.6974901499065953 8.17400068343645e-05
O 4.144977361786917e-06 -1.4281304330538065 0.00023292849824117174
H 4.510126343515639 1.244392411240122 -0.0004484655179621226
H 4.510138340572611 -1.24436359950926 -0.0002932179255318051
H 2.338886730316755 -2.4766375958055535 2.6896060553582192e-06
H 2.338870873736483 2.4766493623208916 -0.0002042754884951791
H -2.3389107344748705 2.476619515390916 0.00026582787954963397
H -4.51015390497483 1.2443269371604535 1.4590505983146133e-05
H -4.510134272853879 -1.2444164752054645 -0.0003112999330775925
H -2.338854974337298 -2.4766693621470632 -0.0002389089436336288
*
