! wb97x-v def2-tzvp def2/J RIJCOSX DEFGRID2 scfconv7 GCP(DFT/TZ) printgap
%output
    printlevel normal
end
* xyz 0 1
C -2.626926534293073 0.5332631713740514 0.009335735923170262
C -1.236630091861796 -0.05441218283612318 -0.0007682230136646314
C -1.138294099497501 -1.4514856319247367 -0.002462976874716372
C 0.09516268465804369 -2.0858223845907364 -0.004006685729634831
C 1.263780673377014 -1.336975082766946 -0.0009822247033602872
C 1.1746383935384381 0.04942951903214005 0.0013170676477508132
C -0.06442095354885156 0.7191796805563024 -0.003215646232110903
C -0.04250330062804249 2.2264326840823543 -0.010214468421779123
O 2.361799597200378 0.7349429805619915 0.007108248048867739
H -2.6488308773987503 1.6218892294330394 -0.00391918756969912
H -3.194253338675884 0.18092935877141741 -0.8585014077491594
H -3.1688212120245067 0.2052591359512832 0.9028379183497426
H -2.0505276982321874 -2.041081467049245 -0.0018687420502028766
H 0.15049165717152302 -3.1698119896624704 -0.006087573935891339
H 2.2436137347926706 -1.8014502909377068 0.0005301351971769398
H 0.4180902685211787 2.6295454650960495 0.9024615619444472
H 0.5180962393565369 2.6153688889178905 -0.8714686422607175
H -1.0388040174962052 2.659184804756017 -0.07311437859377964
H 2.1869918102602584 1.681763704248472 0.022302663422605333
*
