! wb97x-v def2-tzvp def2/J RIJCOSX DEFGRID2 scfconv7 GCP(DFT/TZ) printgap
%output
    printlevel normal
end
* xyz 0 1
C 0.2449362153810258 -0.0004452514652916445 0.004691618259832252
N -1.3912440900375704 0.00272600031866097 -0.22047028696405543
O -1.9046537143847742 1.0914609318755903 -0.263815870868403
O -1.9088395758530035 -1.084055184314229 -0.26349157456885247
Cl 0.9075233253126985 -1.4578204177741887 -0.7228768999267852
Cl 0.9128700989529328 1.45542460584408 -0.7209679769610005
Cl 0.4359301970452617 -0.0019699805858894434 1.7715487241199805
*
