! pbe def2-sv(p) def2/J RI DEFGRID1 loosescf d4 GCP(DFT/SV(P)) printgap
%output
    printlevel normal
end
* xyz 0 1
C 0.5832495886 1.7104703221 -0.0143721752
C 1.3940029032 0.4284371256 -0.2419449676
H 1.6389663079 0.3252653019 -1.304910551
C 0.5485435405 -0.7770805774 0.1928474688
H 0.3540090518 -0.7037746103 1.2783973244
C -0.7947268812 -0.7542728089 -0.5432735958
H -0.6132982056 -0.8867250576 -1.6195294934
C -1.4731611665 0.6112581384 -0.303650108
H -2.3680706612 0.6924724208 -0.9398074168
O -0.6530606297 1.662335838 -0.698628953
O -1.8188774599 0.7340231715 1.0477814127
O -1.6607413369 -1.7481882233 -0.0538914313
O 1.1982125799 -1.9965557817 -0.0857100735
O 2.6306872564 0.4343824487 0.4303732811
H 1.1087574043 2.578157455 -0.415487573
H 0.4112824335 1.8517605919 1.0618512353
H -2.2417875356 -0.0985583962 1.297803144
H -1.1703595008 -2.5798315202 -0.0593762272
H 2.14614427 -1.8542556464 0.034528305
H 2.483099737 0.6599512276 1.3574043933
*
