! pbe def2-sv(p) def2/J RI DEFGRID1 loosescf d4 GCP(DFT/SV(P)) printgap
%output
    printlevel normal
end
* xyz 0 1
C 0.7563870026 -1.2549829532 -0.4721528486
C 0.0014213419 -1.883e-06 -0.0172897687
C -1.4199983485 -0.0013572541 -0.5788970013
C 0.753568063 1.2569550205 -0.4713819244
O -0.1365299793 -0.0006419902 1.3964859743
H 1.771417935 -1.2552452326 -0.076910528
H 0.245320045 -2.1446407638 -0.1118031261
H 0.8078667392 -1.2944719755 -1.5566283693
H -1.9502177656 -0.8826173073 -0.2288049878
H -1.4005366923 -0.0015984072 -1.6647522177
H -1.9518603791 0.8790710973 -0.2291598488
H 1.7688332899 1.258871196 -0.0767688521
H 0.804325617 1.2976347537 -1.555851392
H 0.2409525362 2.1452494957 -0.1098434545
H 0.7422356971 0.0006338926 1.791351981
*
