! pbe def2-sv(p) def2/J RI DEFGRID1 loosescf d4 GCP(DFT/SV(P)) printgap
%output
    printlevel normal
end
* xyz 0 1
C 0.7700848631 -1.2654020235 -0.4762587034
C 0.0039111933 -0.0034381044 -0.0190761028
C -1.4099621562 0.0060434452 -0.6132574704
C 0.752940009 1.2645536452 -0.4299958878
O -0.0749413892 0.0415100949 1.3996256059
H 0.1671398265 -1.873223107 -1.1461067193
H 1.6888854492 -0.9988246479 -0.9903268105
H 1.0376442824 -1.8687269796 0.3888372573
H -1.3642988598 0.051397348 -1.6979797453
H -1.9592113572 0.8715715783 -0.2490393631
H -1.9515453465 -0.8941875682 -0.3243807265
H 0.8620513101 1.3077936848 -1.5098475803
H 0.2073537155 2.1402519881 -0.0888299456
H 1.7352362329 1.2719902758 0.0342717916
H -0.6275973118 -0.6879111002 1.7008862394
*
