! wb97x-v def2-tzvp def2/J RIJCOSX DEFGRID2 scfconv7 GCP(DFT/TZ) printgap
%output
    printlevel normal
end
* xyz 0 1
C 1.5707694295405994 -0.021586702343402805 0.5701381215229083
C 0.6798395371974129 0.3532171533295108 -0.6133641719285564
C -0.6798473368829447 -0.3532677169791808 -0.6133333509508044
C -1.5707691809850581 0.02164016351363747 0.5701412884726899
H 1.734963146360103 -1.1044707985213955 0.6071569608291342
H 2.5494624300787527 0.46223114289902595 0.49587317033768336
H 1.1277340775600813 0.28080400233636504 1.523821597384336
H 0.5196309402724631 1.4397510840030068 -0.6223132929874838
H 1.2037425412339595 0.11218374018671046 -1.5466108480854324
H -1.203757841038074 -0.1123256030586994 -1.5465996727650748
H -0.519631358741097 -1.4398015246597802 -0.622179180069286
H -1.127715784514584 -0.28063154416086034 1.5238548915978163
H -2.5494445327027386 -0.4622229492510092 0.49593778205380196
H -1.7350047502954777 1.1045220215379192 0.6070454985257969
*
