! pbe def2-sv(p) def2/J RI DEFGRID1 loosescf d4 GCP(DFT/SV(P)) printgap
%output
    printlevel normal
end
* xyz 0 1
C 0.8812467751 1.4506507397 -0.5201644945
C 1.4051858837 0.2245293366 0.2499839934
H 2.4891145004 0.1483099256 0.1194476043
C 0.7460036488 -1.0433646091 -0.3381631699
H 1.1134134171 -1.9248424241 0.1968737083
C -0.7941029628 -0.985810013 -0.1764992565
H -1.2260122838 -1.556656514 -1.0059952818
C -1.2808516132 0.4872312902 -0.2939988209
H -2.2436388024 0.5233907293 -0.8218592725
O -0.4097871401 1.2414210283 -1.0947289542
O -1.4131894901 1.0247466399 0.9960383841
O -1.2558215073 -1.6080870702 0.9836991272
O 1.1126880379 -1.2225027337 -1.6810919212
O 1.1961646618 0.3328421805 1.6339239597
H 1.5279482486 1.6944831167 -1.364133243
H 0.8548887311 2.3134322212 0.1587831848
H -1.8188145846 1.8967091337 0.938051223
H -0.9139559016 -1.1410708042 1.7566899648
H 0.7467143117 -0.494486953 -2.1990795619
H 0.2822800169 0.6290675112 1.7777465407
*
