! wb97x-v def2-tzvp def2/J RIJCOSX DEFGRID2 scfconv7 GCP(DFT/TZ) printgap
%output
    printlevel normal
end
* xyz 0 1
C 0.736896191642563 0.6386429612484514 0.009691886491436838
C -0.6151714303115047 -0.03861302196188978 -0.41398879795001736
F -1.1251065543553327 0.7228833800265335 -1.4068272675336881
Cl -1.759708557345174 -0.055667355005394714 0.950566200426585
Cl -0.3220696398870484 -1.682153068232188 -1.0346264706462682
F 1.5359244361966475 0.6927325766914703 -1.0687586294275326
F 0.47397080784047096 1.8986102092249812 0.3937242111552498
Cl 1.5608778672827874 -0.2340407155724746 1.3267714102420989
*
