! wb97x-v def2-tzvp def2/J RIJCOSX DEFGRID2 scfconv7 GCP(DFT/TZ) printgap
%output
    printlevel normal
end
* xyz 0 1
C -2.182747867562871 0.27729457447695327 -0.13379350094823161
C -0.9254137742900017 -0.39683110938073607 0.39822522381240893
S 0.5611254395641173 0.37368945837210377 -0.35967346862193667
C 1.8480852040924634 -0.6297037678161611 0.46194489076750667
H -2.189990740160488 1.3442767974224796 0.10651232341006857
H -2.2579241347663905 0.17100170007509982 -1.219745486675931
H -3.0706803647659555 -0.17869333286851774 0.3150384284599106
H -0.9282490734509803 -1.4660445580948582 0.15719399210639698
H -0.8602233571972158 -0.2894450433406237 1.4870453124738479
H 1.741331036022889 -1.6882806028782598 0.20727450740424827
H 1.8095868847032108 -0.502970028632692 1.547867452672986
H 2.8160903680173357 -0.275881008685766 0.09975465632314286
*
