! pbe def2-sv(p) def2/J RI DEFGRID1 loosescf d4 GCP(DFT/SV(P)) printgap
%output
    printlevel normal
end
* xyz 0 1
C 0.7990070625 1.3198888448 -0.9995780323
C 1.4324942306 0.3452037568 0.0041853186
H 2.4471695743 0.1201245248 -0.3469723699
C 0.618489975 -0.9729451996 0.0702809543
H 0.5441081165 -1.2719897843 1.1272018337
C -0.8039091498 -0.7627479184 -0.468353226
H -0.7593296056 -0.7989795261 -1.5687820066
C -1.2931476397 0.6315028638 -0.0715858548
H -2.338414415 0.7534087694 -0.3868226116
O -0.5623516053 1.63077169 -0.7204962755
O -1.1937494155 0.7697171493 1.3252193026
O -1.7073774756 -1.716935427 0.0111144518
O 1.1897559844 -2.0107251193 -0.6966169577
O 1.5888875094 0.9174490088 1.2716503523
H 0.8774844338 0.8940214953 -2.0081355706
H 1.3286552154 2.2748157736 -0.9711271698
H -1.644343945 1.5806955276 1.5887104596
H -1.3250135339 -2.5873843246 -0.1536854392
H 2.0716536083 -2.2017114532 -0.3584301093
H 0.6964858735 1.0567422688 1.6329652866
*
