! r2scan-3c def2/J RI DEFGRID2 scfconv6 printgap
%output
    printlevel normal
end
* xyz 0 1
C 0.6313759699 1.4558838987 -0.076706507
C 1.5110057295 0.196390144 0.0825566042
H 2.4363432007 0.2980434982 -0.4990679753
C 0.7389896326 -1.0334519468 -0.4611134459
H 1.215105703 -1.9514201347 -0.0933333941
C -0.7078049933 -0.9794920106 0.06183568
H -1.2677269131 -1.8516258296 -0.2898030463
C -1.3984433143 0.3192347555 -0.4731795723
H -2.0230575812 0.1009061125 -1.3486480175
O -0.430844893 1.2243835908 -0.9754366663
O -2.1846396554 0.8901501085 0.5072754505
O -0.7509881677 -1.0137321913 1.4676432881
O 0.8038070152 -1.1000199587 -1.8561198074
O 1.806137938 0.0549279894 1.4622340614
H 1.199696525 2.2878946148 -0.4921208201
H 0.2498855495 1.7503877781 0.9088967274
H -1.9774437534 0.436653363 1.3467577865
H 0.0365954155 -0.5569236337 1.8136643203
H 0.4158975668 -0.2872229021 -2.2122280927
H 2.4867924343 -0.6172489707 1.5798836112
*
