! wb97x-v def2-tzvp def2/J RIJCOSX DEFGRID2 scfconv7 GCP(DFT/TZ) printgap
%output
    printlevel normal
end
* xyz 0 1
C -2.11360212788692 -1.2676622217718923 -0.1430928232060178
C -1.503516245722082 2.207889976114484e-06 0.4157224923222673
C -2.113604227488336 1.2676516456747793 -0.1431234502222559
I 0.6752719397169796 -1.4818904598260494e-05 -0.006802724958239925
H -1.645816436034274 -2.1635652355491297 0.2697631125424669
H -3.1814109044784997 -1.2864356692696428 0.11316088117713446
H -2.0249180029094456 -1.299140419095379 -1.2326590517427618
H -1.5168145563975202 1.7153414060011836e-05 1.5067727507282078
H -2.025095571646518 1.2990117264178143 -1.2327078468404524
H -1.6456948476028317 2.163566645328565 0.26956634854780603
H -3.181369566857313 1.2865227877946301 0.11330626782666467
*
