! r2scan-3c def2/J RI DEFGRID2 scfconv6 printgap
%output
    printlevel normal
end
* xyz 0 1
C 0.6538313086 1.6924606648 -0.0528833539
C 1.4188355497 0.38561163 -0.2799703897
H 1.6113210682 0.2525100885 -1.3561764169
C 0.558702501 -0.7927348369 0.193679744
H 0.4109255885 -0.7175817333 1.2866633316
C -0.8056730922 -0.743150516 -0.5112737338
H -0.6524794848 -0.9072607356 -1.5836134329
C -1.4628177205 0.6372250791 -0.2851651219
H -2.3529470039 0.7297892449 -0.9187514114
O -0.6255496202 1.6868153157 -0.6579641745
O -1.934504595 0.7205036532 1.0335302627
O -1.6422513321 -1.7705079174 -0.0454856559
O 1.2387164457 -1.9906036414 -0.0970022737
O 2.6243311816 0.4562712339 0.4334342125
H 1.1875729505 2.5248756263 -0.5112192558
H 0.5958616197 1.8807740064 1.0291637182
H -1.2096269286 0.9717843934 1.6187192764
H -2.1410005251 -1.4206210844 0.7081911413
H 0.5843611083 -2.7010924429 -0.102456436
H 3.0270185933 -0.4208116531 0.3988295937
*
