! r2scan-3c def2/J RI DEFGRID2 scfconv6 printgap
%output
    printlevel normal
end
* xyz 0 1
C -1.2562757032 -0.1621753122 5.9122e-06
C 0.1261115965 0.4076744486 5.2688e-06
O 1.1421450317 -0.2257820586 -3.3e-07
H -1.7906855654 0.1954613086 0.8783167608
H -1.7902683594 0.1946909474 -0.8788783496
H -1.2266417928 -1.2483557796 0.0004485472
H 0.1451945512 1.5166888306 -1.49614e-05
*
