! wb97x-v def2-tzvp def2/J RIJCOSX DEFGRID2 scfconv7 GCP(DFT/TZ) printgap
%output
    printlevel normal
end
* xyz 0 1
C -1.6888652422683366 0.4108860179189642 -0.020254339517927232
C -0.6156419462233459 -0.6641154253739013 0.0740037392678365
S 1.0459373924044366 0.14512782271998614 -0.02779346108875717
H -1.6199456406118602 0.9560200834631141 -0.9662293159388655
H -2.6811328017729403 -0.047292335158185025 0.03701088168211432
H -1.5994449265528408 1.1316780194879592 0.797884307374216
H -0.7124500863223819 -1.379375317173801 -0.7474449726523935
H -0.6906993277228193 -1.202641221440994 1.022712227586764
H 1.7778545081895971 -0.977613132310467 0.07510568467841576
*
