! wb97x-v def2-tzvp def2/J RIJCOSX DEFGRID2 scfconv7 GCP(DFT/TZ) printgap
%output
    printlevel normal
end
* xyz 0 1
C 0.7093554625929337 0.5569925594317341 0.21769129499975284
C -0.5773865769179944 -0.16715692805221755 -0.3123743384071045
F -0.47675067004338006 -0.27502019299479075 -1.6496650527432524
Cl -2.0075720817930045 0.8322217568211295 0.08584134520097161
Cl -0.7291262123343378 -1.7871337346301597 0.41215866903886517
F 0.7675732253507547 1.7820405060150986 -0.32845522222827606
F 0.6441909914759903 0.6857944198032104 1.5482818704060002
Cl 2.184906895819048 -0.35066973293545567 -0.23342581042639238
*
