! r2scan-3c def2/J RI DEFGRID2 scfconv6 printgap
%output
    printlevel normal
end
* xyz 0 1
C -2.4823271025 -0.0525443818 -0.1529178757
C -1.2308481666 0.7637746611 0.1390452407
C 0.0200383943 -0.0809711248 0.0572552245
O 0.0625143278 -1.2811569091 0.0747012695
O 1.1115675707 0.6955584298 -0.0251873918
C 2.3596811392 0.0181227079 -0.0793252511
H -2.4661834937 -0.4187002446 -1.1762035779
H -2.5295841011 -0.9111024507 0.5115105024
H -3.3724079732 0.5547946835 -0.0117580218
H -1.2737005936 1.1760660221 1.1505805096
H -1.1270284137 1.6013207137 -0.5519990062
H 2.3890298188 -0.6534700723 -0.9396745259
H 2.5124556605 -0.5686448219 0.8287167769
H 3.1206494895 0.7888499313 -0.1688321735
*
