! r2scan-3c def2/J RI DEFGRID2 scfconv6 printgap
%output
    printlevel normal
end
* xyz 0 1
C -2.3029807442 0.2142596649 0.5807090557
C -1.2829419937 0.5716115631 -0.500255361
C 0.0101738375 -0.169574639 -0.2493929349
O 0.1455893468 -1.3631440051 -0.2935857554
O 0.9995498282 0.679328625 0.0570638755
C 2.2715676167 0.1095470041 0.3354754695
H -1.9571304434 0.5477543033 1.5563954048
H -3.2566597165 0.6904620108 0.3689193535
H -2.4465413665 -0.8627917325 0.612676647
H -1.0836228949 1.6425820427 -0.5083890124
H -1.664530879 0.2643663785 -1.4754355228
H 2.7875413953 -0.125910339 -0.5975589874
H 2.1550000561 -0.8067855141 0.9171817354
H 2.8297514521 0.8554308925 0.896169224
*
