! pbe def2-sv(p) def2/J RI DEFGRID1 loosescf d4 GCP(DFT/SV(P)) printgap
%output
    printlevel normal
end
* xyz 0 1
C -1.7126498884 -0.3762978753 3.725e-06
C -0.6132156483 0.6654498562 -8.6333e-06
Cl 0.9947420897 -0.1175502312 4.134e-07
H -1.6425018728 -1.0067455336 0.8828468909
H -2.6805807361 0.1207371502 0.0001814335
H -1.642747619 -1.0065539293 -0.883014173
H -0.6536590355 1.290826624 0.8914799424
H -0.6536730998 1.290796018 -0.8914501431
*
