! pbe def2-sv(p) def2/J RI DEFGRID1 loosescf d4 GCP(DFT/SV(P)) printgap
%output
    printlevel normal
end
* xyz 0 1
C 0.9077434768 1.4304442667 -0.5675218248
C 1.4055648606 0.207744919 0.2137558581
H 2.4883372934 0.1086050084 0.0599190003
C 0.723513331 -1.0630415415 -0.3120006364
H 1.0073260654 -1.9167267288 0.3311362189
C -0.8201564606 -0.9447541423 -0.2301775724
H -1.2404955435 -1.4664754967 -1.1022559792
C -1.2795173508 0.5436585728 -0.2721897192
H -2.2549804205 0.6184776342 -0.7659186758
O -0.4172857572 1.3074637233 -1.0568977185
O -1.4713412643 1.0285584597 1.0191402016
O -1.2931280846 -1.5680013618 0.9333876144
O 1.1982279256 -1.2564682472 -1.6171430232
O 1.1345307321 0.417151543 1.5880590023
H 1.5229970482 1.5776676852 -1.4554930549
H 0.9903976576 2.3112213562 0.0842130675
H -0.5995401535 1.075067365 1.458495952
H -1.6760436772 -0.8703468728 1.4939021906
H 0.7281678714 -1.9949169686 -2.0205450589
H 1.3429427634 -0.3849761146 2.0814822569
*
