! wb97x-v def2-tzvp def2/J RIJCOSX DEFGRID2 scfconv7 GCP(DFT/TZ) printgap
%output
    printlevel normal
end
* xyz 0 1
C 1.593332597888902 -0.03264257028378401 -0.561335808750924
C 0.664471790970724 0.3709446374158748 0.6037155020003717
C -0.677013032209122 -0.36994888231745066 0.6039180062487622
C -1.5824513289811237 0.03307221718782059 -0.5584432641782728
H 2.514034837146549 -0.49770650210955086 -0.1986323900544321
H 1.1094450226822232 -0.757050601597314 -1.2243101885585015
H 1.8823967466814513 0.8229372469646554 -1.1777202060220693
H 1.1701248418757582 0.18778273572872778 1.5581850990124873
H 0.4655771859427702 1.4494031249151156 0.5716614042409702
H -0.48998153133294 -1.4519476716217476 0.572608537873203
H -1.1980424484423384 -0.17460099366757326 1.5495110862211634
H -2.521177037581583 -0.5293191783680996 -0.547609877151314
H -1.1017989122373673 -0.1453428825615447 -1.5260613923734352
H -1.829375686353159 1.099201813013785 -0.5043436298654268
*
