! r2scan-3c def2/J RI DEFGRID2 scfconv6 printgap
%output
    printlevel normal
end
* xyz 0 1
C -2.2201770371 3.87698e-05 -0.0002555425
C -1.5296393805 -1.2021081957 -9.9075e-06
C -0.1479411065 -1.2098155452 0.0001927962
C 0.5469392329 -5.71062e-05 0.0001851295
C -0.1478334017 1.2097660377 0.000227767
C -1.5295589855 1.2021685558 -5.45887e-05
C 1.9613613337 2.73891e-05 6.78407e-05
N 3.107720977 -2.04497e-05 -0.0003030174
H -3.2999682663 9.76704e-05 -0.000648146
H -2.070771712 -2.1364960069 -0.0001448309
H 0.4003846257 -2.140409731 0.0004362805
H 0.4005769287 2.1402913321 0.0004940033
H -2.0707493358 2.1365637137 -0.0001388471
*
