! pbe def2-sv(p) def2/J RI DEFGRID1 loosescf d4 GCP(DFT/SV(P)) printgap
%output
    printlevel normal
end
* xyz 0 1
C -2.1140005943 -1.2590235807 -0.1434859034
C -1.4863774172 1.799e-06 0.4169545212
C -2.114022843 1.2590117524 -0.1434889676
I 0.6617563884 1.2434e-06 -0.0107987921
H -1.6443223014 -2.1513865461 0.2650323315
H -3.1727147603 -1.2796623477 0.1153706775
H -2.0258494589 -1.287256696 -1.228079708
H -1.538068276 4.7608e-06 1.5060767841
H -2.0261999208 1.2870558041 -1.228112074
H -1.6441177719 2.1513876959 0.2647389095
H -3.172653428 1.2798202956 0.115698078
*
