! wb97x-v def2-tzvp def2/J RIJCOSX DEFGRID2 scfconv7 GCP(DFT/TZ) printgap
%output
    printlevel normal
end
* xyz 0 1
C 2.3627854890086786 -1.391517738025876 -3.716224732988019e-05
C 1.1665352149857575 -0.6972941126748349 -7.701780079096864e-05
C 1.166534931565021 0.6972985532461257 -8.018978192582633e-05
C 2.362784799741487 1.3915227728628992 -3.6922534435033984e-05
C 3.570670625558773 0.6977696763094237 2.501608284033589e-06
C 3.570670912434576 -0.697763988380604 3.4088345465612586e-07
Cl 5.053984976386773 -1.6026221551520405 4.660569196431182e-05
Cl 5.053984055727279 1.6026286362499285 5.656895625237818e-05
O -3.181204259714383e-07 1.4301107209552681 -0.0001301075863257344
C -1.1665353381157586 0.6972980866705948 -8.286192884805649e-05
C -2.362785501579966 1.3915218088283943 -4.797526044576199e-05
C -3.5706709769959106 0.6977681493353235 -4.142855488174661e-06
C -3.5706707026846374 -0.6977655668784085 8.83109991716756e-06
C -2.3627849835421046 -1.3915187756887963 -2.4880169346555e-05
C -1.1665351383676814 -0.6972945573705231 -7.373918116110086e-05
O 2.5241847142502503e-07 -1.4301068135476547 -0.00011633650259597161
Cl -5.053984310663908 -1.6026243127737536 6.894422804703268e-05
Cl -5.053984919319499 1.6026264317856231 3.634123496777183e-05
H 2.348844256623204 -2.4745828221675965 -3.671860154507267e-05
H 2.3488429686535257 2.4745878397185592 -3.605038571581113e-05
H -2.3488443119353724 2.4745868468028585 -5.646172089839221e-05
H -2.348843235363322 -2.4745838668425333 -1.529684069589538e-05
*
