! pbe def2-sv(p) def2/J RI DEFGRID1 loosescf d4 GCP(DFT/SV(P)) printgap
%output
    printlevel normal
end
* xyz 0 1
C -2.415175551 -0.0574843474 -1.487e-05
C -1.8545287214 -1.3238328503 6.52984e-05
C -0.4778504081 -1.4685620905 1.9456e-06
C 0.3234519251 -0.3431103814 -7.5671e-05
C -0.2248403568 0.9406598985 4.3185e-06
C -1.6110294649 1.0658790289 -9.70562e-05
O 0.5422652342 2.049218994 8.88944e-05
Cl 2.0623738587 -0.5015057931 -1.20472e-05
H -3.4881328934 0.0575760746 -3.1109e-05
H -2.4833066713 -2.2001962929 0.0003904473
H -0.025877093 -2.4482047258 8.01221e-05
H -2.0309788649 2.0588276642 -0.0001434626
H 1.4753357273 1.7819926906 9.94245e-05
*
