! r2scan-3c def2/J RI DEFGRID2 scfconv6 printgap
%output
    printlevel normal
end
* xyz 0 1
C -1.2511040237 0.3046165749 -0.017332374
C -0.0076961462 -0.5749391016 -0.0173408397
N 1.185335481 0.2576111148 -0.017339819
H -1.2120148982 0.9934583892 -0.8563844996
H -2.1465832483 -0.3058028935 -0.0987143365
H -1.3065968694 0.8838786684 0.9021877303
H 0.0159736799 -1.1768545063 -0.9304816711
H -0.0528017914 -1.2683352277 0.8412676734
H 1.209386553 0.8317783258 0.8194439567
H 2.0210722908 -0.3167275122 -0.0231531496
*
