! r2scan-3c def2/J RI DEFGRID2 scfconv6 printgap
%output
    printlevel normal
end
* xyz 0 1
C 0.8896964283 1.3353448945 -0.6890456343
C 1.5872877589 0.1486813985 -0.0240634158
H 2.6043812823 0.026272274 -0.4132570663
C 0.777566071 -1.1252753304 -0.3424347407
H 1.2023912456 -1.9638476434 0.2322834891
C -0.6831958106 -0.9250806591 0.100689203
H -1.3139932094 -1.7306618648 -0.2982061981
C -1.2499583366 0.4172509776 -0.4333607105
H -1.3605460972 0.3671460523 -1.5278492892
O -0.3822973973 1.4939050044 -0.105757739
O -2.487523601 0.6642231802 0.1060847546
O -0.8141597485 -0.9758973617 1.499991754
O 0.8870959087 -1.3529427118 -1.7253260253
O 1.6447860976 0.3458876653 1.3750497861
H 0.8145780899 1.1642747897 -1.7693523606
H 1.4316073216 2.2645052483 -0.4983234875
H -2.4412500013 0.447930487 1.0513927883
H -0.0213092403 -0.5669074879 1.8854568031
H 0.4495975932 -2.1832082514 -1.9445524192
H 1.176064893 1.1703066724 1.5698008219
*
