! r2scan-3c def2/J RI DEFGRID2 scfconv6 printgap
%output
    printlevel normal
end
* xyz 0 1
C -1.694571395 0.4084432782 -0.019977596
C -0.617340075 -0.6535360927 0.0728055525
S 1.0394201304 0.1396672642 -0.026671354
H -1.6155968001 0.9472403006 -0.9615812367
H -2.6776047762 -0.0542216589 0.0381900256
H -1.5941375301 1.1224480715 0.7944059119
H -0.691472129 -1.362305364 -0.7519076483
H -0.6698660752 -1.1854087876 1.022720912
H 1.7367805795 -0.9896522502 0.0770102389
*
