! r2scan-3c def2/J RI DEFGRID2 scfconv6 printgap
%output
    printlevel normal
end
* xyz 0 1
C -1.9158811902 -0.2347132656 -0.5323748706
C -1.1850942589 -0.0549645183 0.7914771267
C 0.1151684681 0.7177420125 0.6303188725
S 1.342519604 -0.1593127929 -0.402895403
H -1.2806797351 -0.7535498828 -1.2466740725
H -2.8236167943 -0.815530204 -0.3902708213
H -2.1852553351 0.7319618504 -0.9522650982
H -0.9729141321 -1.0334752299 1.2305589843
H -1.8198732711 0.4936938967 1.4923690295
H -0.0542310426 1.6620775466 0.1135620383
H 0.5816805911 0.91862818 1.5951811368
H 1.4325056983 -1.2374516651 0.3740180602
*
