! r2scan-3c def2/J RI DEFGRID2 scfconv6 printgap
%output
    printlevel normal
end
* xyz 0 1
C 2.4079878892 1.1489800146 2.96223e-05
C 1.2682553887 1.9119551744 2.28192e-05
C 5.4031e-06 1.2921311049 4.6986e-06
C -1.2682475138 1.9119592584 -2.05268e-05
C -2.4079824511 1.1489900325 -4.74182e-05
C -2.3794366483 -0.2605572723 -4.696e-06
C -1.1668304993 -0.890743265 2.11435e-05
C -4.8779e-06 -0.1097698755 3.9243e-06
C 1.1668251026 -0.8907431519 -1.50804e-05
C 2.3794353263 -0.2605681863 5.2187e-06
C 0.7752611044 -2.3425980202 -0.0001197811
C -0.7752692835 -2.3425956927 0.0001174949
H 3.371538937 1.6391887566 5.24845e-05
H 1.3334012438 2.9906256304 4.28641e-05
H -1.3333759963 2.9906305339 -1.49624e-05
H -3.3715287479 1.6392079869 -3.95823e-05
H -3.3079329212 -0.8130516704 1.45011e-05
H 3.3079296804 -0.8130621818 -1.61129e-05
H 1.1740166032 -2.8509873622 -0.8801393289
H 1.1743239641 -2.8512675802 0.8795918671
H -1.1743323042 -2.851265945 -0.8795954116
H -1.1740278313 -2.8509897848 0.880134438
*
