! pbe def2-sv(p) def2/J RI DEFGRID1 loosescf d4 GCP(DFT/SV(P)) printgap
%output
    printlevel normal
end
* xyz 0 1
S -2.9e-08 -0.0543383376 -0.0
H -0.957504587 0.8642166864 2e-10
H 0.9575055098 0.8642158012 4e-10
*
