! r2scan-3c def2/J RI DEFGRID2 scfconv6 printgap
%output
    printlevel normal
end
* xyz 0 1
C -1.906728127 1.2077809249 0.1860635588
C -1.5110078261 -0.2206701164 -0.1587067271
C -0.0269250095 -0.4981519395 -0.0731442471
O 0.456231247 -1.600213224 -0.1081167555
O 0.701784275 0.6180382026 0.033470349
C 2.1090198015 0.4415154764 0.1033250466
H -1.6028434712 1.4551115923 1.1997833857
H -1.4335685639 1.9114472056 -0.4929844308
H -2.985510416 1.3207267508 0.1097051251
H -1.8165474906 -0.4628800325 -1.180382337
H -2.0105287396 -0.9346335504 0.4996880131
H 2.3681975404 -0.2157602936 0.9356733781
H 2.5331449152 1.4315772133 0.2494935811
H 2.4819676094 -0.0028766376 -0.8217077118
*
