! pbe def2-sv(p) def2/J RI DEFGRID1 loosescf d4 GCP(DFT/SV(P)) printgap
%output
    printlevel normal
end
* xyz 0 1
C 0.892994714 1.4424416618 -0.4743768595
C 1.4016798732 0.1852946501 0.2500636368
H 2.4936975313 0.1172440677 0.1497054104
C 0.744599362 -1.0493866912 -0.3991194257
H 1.118881809 -1.96576158 0.0717970418
C -0.7831503232 -0.9846657734 -0.1688035357
H -1.2596549028 -1.5998341506 -0.946347995
C -1.2735855999 0.492723619 -0.3026520003
H -2.2204641563 0.5369339459 -0.8514659703
O -0.3688380708 1.2281140354 -1.0917234594
O -1.521160891 1.0478918413 0.9419650416
O -1.0894015605 -1.5077155363 1.0987453444
O 1.0716443537 -1.1483985538 -1.7551332447
O 1.054682831 0.3000305325 1.6184712297
H 1.5638722758 1.7283852364 -1.2852389551
H 0.8357932126 2.2686609921 0.2456984955
H -0.6832719042 1.0386729452 1.4485171109
H -1.7118855051 -0.8979663144 1.526570274
H 0.6660783616 -0.4041939236 -2.2205764159
H 1.0298705574 -0.5806938841 2.0141248051
*
