! wb97x-v def2-tzvp def2/J RIJCOSX DEFGRID2 scfconv7 GCP(DFT/TZ) printgap
%output
    printlevel normal
end
* xyz 0 1
C -1.8727616399610167 -0.009176096564637866 7.819020016151935e-06
C -1.1668297167612807 -1.2079581391759522 5.6494053430168586e-06
C 0.2247491181271696 -1.2096803783523786 2.3763723957152945e-06
C 0.9158596379885703 0.0021534533197947337 1.3914364386336467e-06
C 0.21759828337195547 1.20907222203933 4.068573269122421e-06
C -1.1712709669251777 1.1948021857136446 7.215734706899093e-06
O 2.2827193859057155 0.06990177843633134 -2.0160001540313247e-06
H -2.9570835173889516 -0.01210907727751614 1.0526437525533336e-05
H -1.6988527078326798 -2.154129840479788 5.837544155943448e-06
H 0.7722883133628607 -2.1494588437973294 -1.644171903083179e-07
H 0.7746054354012457 2.1397359587736076 2.8738461446016534e-06
H -1.7107597635483058 2.1367996716255235 8.100140022296367e-06
H 2.6415261680248054 -0.8245842529387649 -3.288068475263647e-07
*
