! r2scan-3c def2/J RI DEFGRID2 scfconv6 printgap
%output
    printlevel normal
end
* xyz 0 1
C 0.5836319392 1.7072336875 0.0139447701
C 1.3961138216 0.4267957694 -0.2454279902
H 1.60503484 0.3463495456 -1.3201457453
C 0.54913107 -0.7743738853 0.1925482241
H 0.3408507586 -0.7055444717 1.2699554193
C -0.7938005441 -0.73827669 -0.5573772632
H -0.6143590211 -0.851090017 -1.6382046626
C -1.4766848329 0.6214352085 -0.2975060945
H -2.3691514895 0.71432422 -0.9357779922
O -0.653210377 1.6771646941 -0.6714041697
O -1.8271684891 0.7191335878 1.05417249
O -1.650731795 -1.7497765602 -0.0883679348
O 1.1893046984 -2.0160303681 0.0020052452
O 2.6543048723 0.4482627539 0.3734922456
H 1.1130842037 2.5799922179 -0.3701092787
H 0.4150044175 1.826985859 1.092275343
H -2.2553092476 -0.1159662958 1.2869409627
H -1.1160886744 -2.5486957426 0.0180013999
H 1.8281870753 -1.9361082188 -0.7150565989
H 2.5373241734 0.5031684157 1.3296706761
*
