! pbe def2-sv(p) def2/J RI DEFGRID1 loosescf d4 GCP(DFT/SV(P)) printgap
%output
    printlevel normal
end
* xyz 0 1
C 0.8463027832 1.2805681494 -1.0055392254
C 1.4482776294 0.3121561601 0.0181789366
H 2.467297624 0.0625797932 -0.2921421607
C 0.6327992382 -0.9989267218 0.0365186213
H 0.6059974438 -1.3651629044 1.0763692707
C -0.8203390792 -0.7759397158 -0.4401226806
H -0.858634337 -0.9101401115 -1.5268352273
C -1.2818241112 0.6499047689 -0.1134714616
H -2.3110923435 0.7992200223 -0.4767811427
O -0.505174377 1.633155564 -0.7162738355
O -1.2698319854 0.7774049291 1.2980508421
O -1.6999492624 -1.7239700124 0.1019576929
O 1.2870329982 -1.9296881526 -0.789462077
O 1.5555820536 0.8866361862 1.2892587263
H 0.9043767034 0.8286652188 -2.0028195239
H 1.3948292845 2.2241017185 -1.0011079638
H -1.5854312522 1.6599462616 1.5260282615
H -1.8249352098 -1.5134071972 1.0365925323
H 0.7559782206 -2.7347222563 -0.8208810606
H 0.6553988217 1.0331270318 1.6223519422
*
