! r2scan-3c def2/J RI DEFGRID2 scfconv6 printgap
%output
    printlevel normal
end
* xyz 0 1
C -2.2553422017 0.2885741042 -0.627653362
C -1.2959264981 0.5192952008 0.5407271995
C 0.0061473434 -0.1988690181 0.2715336197
O 0.15920522 -1.3906063422 0.309903627
O 0.9718696863 0.6706386631 -0.0507077131
C 2.2545601465 0.144616506 -0.3661046703
H -3.2154925724 0.754296997 -0.4209959328
H -1.8512704347 0.7164072927 -1.5422465811
H -2.4073160003 -0.7772374987 -0.7791136265
H -1.7292761682 0.1100822301 1.4542723794
H -1.0979380151 1.5825735145 0.6711222435
H 2.9046288395 0.2280660622 0.5066135053
H 2.654757324 0.7381226108 -1.1860346491
H 2.1666622974 -0.9042909818 -0.6552157899
*
