! wb97x-v def2-tzvp def2/J RIJCOSX DEFGRID2 scfconv7 GCP(DFT/TZ) printgap
%output
    printlevel normal
end
* xyz 0 1
C -1.268737844734573 0.2683782352049871 4.5444083586024624e-06
C -3.41006843435515e-06 -0.5822590366764895 2.6575974662906653e-05
C 1.2687444318317624 0.26835868729335466 -2.971932880294686e-05
H -1.304810670099357 0.9150800719744564 0.8835831392615905
H -1.3049703238933674 0.9148114519485746 -0.8837634978421903
H -2.171158697996125 -0.3506491352706218 0.00018056214808764078
H 4.297192963891857e-06 -1.2405667560492575 0.8774389395220399
H -2.1767836003237807e-05 -1.2406487720783752 -0.8773249602895319
H 1.30492133569315 0.9148552939683275 -0.8837537413729001
H 2.171155669627298 -0.3506826719704198 3.427468912952033e-05
H 1.3048941966737548 0.9149964509332795 0.8835925337090085
*
