! pbe def2-sv(p) def2/J RI DEFGRID1 loosescf d4 GCP(DFT/SV(P)) printgap
%output
    printlevel normal
end
* xyz 0 1
C -2.5605042051 0.6025205623 -0.0028092333
C -1.2166786241 -0.0624213188 -4.35559e-05
C -1.135788065 -1.4468038132 -0.0001686668
C 0.0928294259 -2.0820908349 0.0016251465
C 1.2499647688 -1.3337508846 0.0013075202
C 1.1857484783 0.0564289991 0.00016953
C -0.0499228837 0.7094024574 0.0020990906
C -0.1706344713 2.2093153609 0.0036849914
O 2.3833629708 0.7087215593 -0.0038959507
H -2.6865492474 1.2258725402 0.882073472
H -2.6746298995 1.241805468 -0.8777297142
H -3.3531548663 -0.1408624418 -0.0142712223
H -2.0437798289 -2.0317567572 -0.0015774061
H 0.1478496518 -3.1601845909 0.0021047456
H 2.2237153741 -1.7968600571 0.0007665487
H -0.7539766984 2.5381308551 0.8633918108
H 0.7899215142 2.7207654786 0.0450464585
H -0.6861257165 2.5467627836 -0.8957151827
H 2.2464769542 1.662850524 -0.0121354586
*
